Nodes = {"Gdansk", "Bydgoszcz", "Kolobrzeg", "Katowice", "Krakow", "Bialystok", "Lodz", "Poznan", "Rzeszow", "Szczecin", "Warsaw", "Wroclaw"};
Arcs = {<"Gdansk","Bydgoszcz",5,2,0>, <"Gdansk","Kolobrzeg",5,6,1>, <"Gdansk","Katowice",5,15,0>, <"Gdansk","Krakow",5,19,0>, <"Gdansk","Bialystok",5,21,1>, <"Gdansk","Lodz",5,7,0>, <"Gdansk","Poznan",5,6,0>, <"Gdansk","Rzeszow",5,29,0>, <"Gdansk","Szczecin",5,17,0>, <"Gdansk","Warsaw",5,10,1>, <"Gdansk","Wroclaw",5,13,0>, <"Bydgoszcz","Gdansk",5,2,0>, <"Bydgoszcz","Kolobrzeg",5,4,1>, <"Bydgoszcz","Katowice",5,9,0>, <"Bydgoszcz","Krakow",5,13,0>, <"Bydgoszcz","Bialystok",5,27,0>, <"Bydgoszcz","Lodz",5,4,0>, <"Bydgoszcz","Poznan",5,2,1>, <"Bydgoszcz","Rzeszow",5,26,0>, <"Bydgoszcz","Szczecin",5,12,0>, <"Bydgoszcz","Warsaw",5,10,1>, <"Bydgoszcz","Wroclaw",5,5,0>, <"Kolobrzeg","Gdansk",5,6,1>, <"Kolobrzeg","Bydgoszcz",5,4,1>, <"Kolobrzeg","Katowice",5,23,0>, <"Kolobrzeg","Krakow",5,31,0>, <"Kolobrzeg","Bialystok",5,50,0>, <"Kolobrzeg","Lodz",5,17,0>, <"Kolobrzeg","Poznan",5,4,0>, <"Kolobrzeg","Rzeszow",5,51,0>, <"Kolobrzeg","Szczecin",5,3,1>, <"Kolobrzeg","Warsaw",5,28,0>, <"Kolobrzeg","Wroclaw",5,10,0>, <"Katowice","Gdansk",5,15,0>, <"Katowice","Bydgoszcz",5,9,0>, <"Katowice","Kolobrzeg",5,23,0>, <"Katowice","Krakow",5,1,1>, <"Katowice","Bialystok",5,26,0>, <"Katowice","Lodz",5,2,1>, <"Katowice","Poznan",5,8,0>, <"Katowice","Rzeszow",5,10,0>, <"Katowice","Szczecin",5,28,0>, <"Katowice","Warsaw",5,8,0>, <"Katowice","Wroclaw",5,4,1>, <"Krakow","Gdansk",5,19,0>, <"Krakow","Bydgoszcz",5,13,0>, <"Krakow","Kolobrzeg",5,31,0>, <"Krakow","Katowice",5,1,1>, <"Krakow","Bialystok",5,21,0>, <"Krakow","Lodz",5,3,0>, <"Krakow","Poznan",5,15,0>, <"Krakow","Rzeszow",5,4,1>, <"Krakow","Szczecin",5,40,0>, <"Krakow","Warsaw",5,6,1>, <"Krakow","Wroclaw",5,10,0>, <"Bialystok","Gdansk",5,21,1>, <"Bialystok","Bydgoszcz",5,27,0>, <"Bialystok","Kolobrzeg",5,50,0>, <"Bialystok","Katowice",5,26,0>, <"Bialystok","Krakow",5,21,0>, <"Bialystok","Lodz",5,16,0>, <"Bialystok","Poznan",5,40,0>, <"Bialystok","Rzeszow",5,11,1>, <"Bialystok","Szczecin",5,74,0>, <"Bialystok","Warsaw",5,5,1>, <"Bialystok","Wroclaw",5,42,0>, <"Lodz","Gdansk",5,7,0>, <"Lodz","Bydgoszcz",5,4,0>, <"Lodz","Kolobrzeg",5,17,0>, <"Lodz","Katowice",5,2,1>, <"Lodz","Krakow",5,3,0>, <"Lodz","Bialystok",5,16,0>, <"Lodz","Poznan",5,7,0>, <"Lodz","Rzeszow",5,9,0>, <"Lodz","Szczecin",5,27,0>, <"Lodz","Warsaw",5,3,1>, <"Lodz","Wroclaw",5,7,1>, <"Poznan","Gdansk",5,6,0>, <"Poznan","Bydgoszcz",5,2,1>, <"Poznan","Kolobrzeg",5,4,0>, <"Poznan","Katowice",5,8,0>, <"Poznan","Krakow",5,15,0>, <"Poznan","Bialystok",5,40,0>, <"Poznan","Lodz",5,7,0>, <"Poznan","Rzeszow",5,32,0>, <"Poznan","Szczecin",5,6,1>, <"Poznan","Warsaw",5,18,0>, <"Poznan","Wroclaw",5,2,1>, <"Rzeszow","Gdansk",5,29,0>, <"Rzeszow","Bydgoszcz",5,26,0>, <"Rzeszow","Kolobrzeg",5,51,0>, <"Rzeszow","Katowice",5,10,0>, <"Rzeszow","Krakow",5,4,1>, <"Rzeszow","Bialystok",5,11,1>, <"Rzeszow","Lodz",5,9,0>, <"Rzeszow","Poznan",5,32,0>, <"Rzeszow","Szczecin",5,66,0>, <"Rzeszow","Warsaw",5,6,0>, <"Rzeszow","Wroclaw",5,26,0>, <"Szczecin","Gdansk",5,17,0>, <"Szczecin","Bydgoszcz",5,12,0>, <"Szczecin","Kolobrzeg",5,3,1>, <"Szczecin","Katowice",5,28,0>, <"Szczecin","Krakow",5,40,0>, <"Szczecin","Bialystok",5,74,0>, <"Szczecin","Lodz",5,27,0>, <"Szczecin","Poznan",5,6,1>, <"Szczecin","Rzeszow",5,66,0>, <"Szczecin","Warsaw",5,44,0>, <"Szczecin","Wroclaw",5,11,0>, <"Warsaw","Gdansk",5,10,1>, <"Warsaw","Bydgoszcz",5,10,1>, <"Warsaw","Kolobrzeg",5,28,0>, <"Warsaw","Katowice",5,8,0>, <"Warsaw","Krakow",5,6,1>, <"Warsaw","Bialystok",5,5,1>, <"Warsaw","Lodz",5,3,1>, <"Warsaw","Poznan",5,18,0>, <"Warsaw","Rzeszow",5,6,0>, <"Warsaw","Szczecin",5,44,0>, <"Warsaw","Wroclaw",5,18,0>, <"Wroclaw","Gdansk",5,13,0>, <"Wroclaw","Bydgoszcz",5,5,0>, <"Wroclaw","Kolobrzeg",5,10,0>, <"Wroclaw","Katowice",5,4,1>, <"Wroclaw","Krakow",5,10,0>, <"Wroclaw","Bialystok",5,42,0>, <"Wroclaw","Lodz",5,7,1>, <"Wroclaw","Poznan",5,2,1>, <"Wroclaw","Rzeszow",5,26,0>, <"Wroclaw","Szczecin",5,11,0>, <"Wroclaw","Warsaw",5,18,0>};
Demands = {<"Gdansk","Bydgoszcz",10>, <"Gdansk","Kolobrzeg",20>, <"Gdansk","Katowice",30>, <"Gdansk","Krakow",40>, <"Gdansk","Bialystok",50>, <"Gdansk","Lodz",60>, <"Gdansk","Poznan",70>, <"Gdansk","Rzeszow",80>, <"Gdansk","Szczecin",90>, <"Gdansk","Warsaw",100>, <"Gdansk","Wroclaw",110>, <"Bydgoszcz","Gdansk",10>, <"Bydgoszcz","Kolobrzeg",10>, <"Bydgoszcz","Katowice",20>, <"Bydgoszcz","Krakow",30>, <"Bydgoszcz","Bialystok",40>, <"Bydgoszcz","Lodz",50>, <"Bydgoszcz","Poznan",60>, <"Bydgoszcz","Rzeszow",70>, <"Bydgoszcz","Szczecin",80>, <"Bydgoszcz","Warsaw",90>, <"Bydgoszcz","Wroclaw",100>, <"Kolobrzeg","Gdansk",20>, <"Kolobrzeg","Bydgoszcz",10>, <"Kolobrzeg","Katowice",10>, <"Kolobrzeg","Krakow",20>, <"Kolobrzeg","Bialystok",30>, <"Kolobrzeg","Lodz",40>, <"Kolobrzeg","Poznan",50>, <"Kolobrzeg","Rzeszow",60>, <"Kolobrzeg","Szczecin",70>, <"Kolobrzeg","Warsaw",80>, <"Kolobrzeg","Wroclaw",90>, <"Katowice","Gdansk",30>, <"Katowice","Bydgoszcz",20>, <"Katowice","Kolobrzeg",10>, <"Katowice","Krakow",10>, <"Katowice","Bialystok",20>, <"Katowice","Lodz",30>, <"Katowice","Poznan",40>, <"Katowice","Rzeszow",50>, <"Katowice","Szczecin",60>, <"Katowice","Warsaw",70>, <"Katowice","Wroclaw",80>, <"Krakow","Gdansk",40>, <"Krakow","Bydgoszcz",30>, <"Krakow","Kolobrzeg",20>, <"Krakow","Katowice",10>, <"Krakow","Bialystok",10>, <"Krakow","Lodz",20>, <"Krakow","Poznan",30>, <"Krakow","Rzeszow",40>, <"Krakow","Szczecin",50>, <"Krakow","Warsaw",60>, <"Krakow","Wroclaw",70>, <"Bialystok","Gdansk",50>, <"Bialystok","Bydgoszcz",40>, <"Bialystok","Kolobrzeg",30>, <"Bialystok","Katowice",20>, <"Bialystok","Krakow",10>, <"Bialystok","Lodz",10>, <"Bialystok","Poznan",20>, <"Bialystok","Rzeszow",30>, <"Bialystok","Szczecin",40>, <"Bialystok","Warsaw",50>, <"Bialystok","Wroclaw",60>, <"Lodz","Gdansk",60>, <"Lodz","Bydgoszcz",50>, <"Lodz","Kolobrzeg",40>, <"Lodz","Katowice",30>, <"Lodz","Krakow",20>, <"Lodz","Bialystok",10>, <"Lodz","Poznan",10>, <"Lodz","Rzeszow",20>, <"Lodz","Szczecin",30>, <"Lodz","Warsaw",40>, <"Lodz","Wroclaw",50>, <"Poznan","Gdansk",70>, <"Poznan","Bydgoszcz",60>, <"Poznan","Kolobrzeg",50>, <"Poznan","Katowice",40>, <"Poznan","Krakow",30>, <"Poznan","Bialystok",20>, <"Poznan","Lodz",10>, <"Poznan","Rzeszow",10>, <"Poznan","Szczecin",20>, <"Poznan","Warsaw",30>, <"Poznan","Wroclaw",40>, <"Rzeszow","Gdansk",80>, <"Rzeszow","Bydgoszcz",70>, <"Rzeszow","Kolobrzeg",60>, <"Rzeszow","Katowice",50>, <"Rzeszow","Krakow",40>, <"Rzeszow","Bialystok",30>, <"Rzeszow","Lodz",20>, <"Rzeszow","Poznan",10>, <"Rzeszow","Szczecin",10>, <"Rzeszow","Warsaw",20>, <"Rzeszow","Wroclaw",30>, <"Szczecin","Gdansk",90>, <"Szczecin","Bydgoszcz",80>, <"Szczecin","Kolobrzeg",70>, <"Szczecin","Katowice",60>, <"Szczecin","Krakow",50>, <"Szczecin","Bialystok",40>, <"Szczecin","Lodz",30>, <"Szczecin","Poznan",20>, <"Szczecin","Rzeszow",10>, <"Szczecin","Warsaw",10>, <"Szczecin","Wroclaw",20>, <"Warsaw","Gdansk",100>, <"Warsaw","Bydgoszcz",90>, <"Warsaw","Kolobrzeg",80>, <"Warsaw","Katowice",70>, <"Warsaw","Krakow",60>, <"Warsaw","Bialystok",50>, <"Warsaw","Lodz",40>, <"Warsaw","Poznan",30>, <"Warsaw","Rzeszow",20>, <"Warsaw","Szczecin",10>, <"Warsaw","Wroclaw",10>, <"Wroclaw","Gdansk",110>, <"Wroclaw","Bydgoszcz",100>, <"Wroclaw","Kolobrzeg",90>, <"Wroclaw","Katowice",80>, <"Wroclaw","Krakow",70>, <"Wroclaw","Bialystok",60>, <"Wroclaw","Lodz",50>, <"Wroclaw","Poznan",40>, <"Wroclaw","Rzeszow",30>, <"Wroclaw","Szczecin",20>, <"Wroclaw","Warsaw",10>};
